12
CN(C)N | 11-dimethylhydrazine | mult=1
C      0.700958    -0.566593    -0.971107
N      0.210033     0.423466    -0.003773
C     -1.258492     0.414181     0.007552
N      0.686653     0.057746     1.316515
H      0.361417    -0.312690    -1.981647
H      0.361987    -1.583097    -0.737485
H      1.796823    -0.567145    -0.997637
H     -1.668304    -0.566872     0.276615
H     -1.641794     1.154007     0.719891
H     -1.648841     0.693504    -0.977501
H      1.709278     0.096615     1.344861
H      0.390283     0.756878     2.003715
