15
CN(C)CN | dimethylaminomethylamine | mult=1
C      0.646284    -1.245566    -0.912024
N      0.088462     0.032997    -0.464505
C     -1.373428    -0.004957    -0.593939
C      0.493390     0.297352     0.905488
N      0.195886     1.685165     1.170702
H      0.373430    -1.441558    -1.955165
H      0.299349    -2.086552    -0.300295
H      1.741404    -1.222313    -0.877603
H     -1.825619    -0.774619     0.042527
H     -1.824537     0.960781    -0.341429
H     -1.658521    -0.210111    -1.632356
H     -0.001599    -0.356971     1.632367
H      1.575680     0.159244     1.014822
H      0.755336     2.003176     1.956854
H      0.514483     2.203933     0.354554
