12
CN(C)N=N | dimethylaminodiazo | mult=1
C      0.635544    -0.586214    -1.276394
N     -0.139986    -0.264460    -0.091794
C     -0.637089     1.100709     0.018771
N      0.247086    -0.952886     1.025083
N     -0.291130    -0.539401     2.063832
H      0.074782    -0.290036    -2.167415
H      0.814906    -1.664967    -1.316189
H      1.589037    -0.051584    -1.239742
H     -1.438770     1.162591     0.759858
H      0.188718     1.763606     0.292234
H     -1.050220     1.409571    -0.946287
H      0.007123    -1.086927     2.878044
