14
C=CN(C)C | N-vinyldimethylamine | mult=1
C      1.983291    -0.866154     0.108134
C      1.169396     0.184367    -0.023513
N     -0.211777     0.216745     0.008637
C     -0.958819     1.458019    -0.181922
C     -1.030432    -0.987384     0.132188
H      1.606956    -1.869416     0.265181
H      3.059162    -0.736115     0.063262
H      1.618297     1.165612    -0.174666
H     -1.527973     1.417138    -1.116571
H     -1.657161     1.610301     0.648025
H     -0.301605     2.333365    -0.225002
H     -0.851521    -1.659990    -0.713528
H     -0.797642    -1.515892     1.062703
H     -2.100172    -0.750596     0.147073
