13
CN(C)C | trimethylamine | mult=1
C      0.667520    -0.693357     0.999496
N      0.168219    -0.343317    -0.329692
C     -1.293969    -0.361335    -0.347133
C      0.667571     0.970820    -0.733047
H      0.327998    -1.694910     1.286469
H      0.336830     0.015880     1.767099
H      1.762954    -0.720401     1.004180
H     -1.726242     0.365115     0.350669
H     -1.669452    -0.139385    -1.352294
H     -1.669473    -1.356798    -0.084888
H      0.336867     1.766222    -0.055238
H      1.763061     0.974304    -0.760253
H      0.328116     1.217162    -1.745369
